; DUP3 PUSH cw_4 PUSH cw_5 SWAP1 SWAP2 => PUSH cw_4 PUSH cw_5 DUP5
(set-option :produce-proofs true)
; 
(set-info :status unknown)
(declare-fun storage_t ((_ BitVec 256) (_ BitVec 256) (_ BitVec 256) (_ BitVec 256) (_ BitVec 256) Int (_ BitVec 256)) (_ BitVec 256))
(declare-fun w_5 () (_ BitVec 256))
(declare-fun w_4 () (_ BitVec 256))
(declare-fun storage_s ((_ BitVec 256) (_ BitVec 256) (_ BitVec 256) (_ BitVec 256) (_ BitVec 256) Int (_ BitVec 256)) (_ BitVec 256))
(declare-fun exc_halt_t (Int) Bool)
(declare-fun exc_halt_s (Int) Bool)
(declare-fun stack_t ((_ BitVec 256) (_ BitVec 256) (_ BitVec 256) (_ BitVec 256) (_ BitVec 256) Int (_ BitVec 6)) (_ BitVec 256))
(declare-fun stack_s ((_ BitVec 256) (_ BitVec 256) (_ BitVec 256) (_ BitVec 256) (_ BitVec 256) Int (_ BitVec 6)) (_ BitVec 256))
(declare-fun sc_t (Int) (_ BitVec 6))
(declare-fun sc_s (Int) (_ BitVec 6))
(declare-fun used_gas_t ((_ BitVec 256) (_ BitVec 256) (_ BitVec 256) (_ BitVec 256) (_ BitVec 256) Int) Int)
(declare-fun used_gas_s ((_ BitVec 256) (_ BitVec 256) (_ BitVec 256) (_ BitVec 256) (_ BitVec 256) Int) Int)
(assert
 (exists ((x_0 (_ BitVec 256)) (x_1 (_ BitVec 256)) (x_2 (_ BitVec 256)) )(let (($x3766 (forall ((w (_ BitVec 256)) )(let ((?x9440 (storage_t x_0 x_1 x_2 w_4 w_5 3 w)))
 (let ((?x2814 (storage_s x_0 x_1 x_2 w_4 w_5 5 w)))
 (= ?x2814 ?x9440))))
 ))
 (let (($x4112 (exc_halt_t 3)))
 (let (($x1862 (exc_halt_s 5)))
 (let (($x34 (= $x1862 $x4112)))
 (let (($x1677 (forall ((n (_ BitVec 6)) )(let ((?x3595 (stack_t x_0 x_1 x_2 w_4 w_5 3 n)))
 (let ((?x7990 (stack_s x_0 x_1 x_2 w_4 w_5 5 n)))
 (let (($x9977 (= ?x7990 ?x3595)))
 (let ((?x11964 (sc_t 3)))
 (let (($x384 (bvsle ?x11964 n)))
 (or $x384 $x9977)))))))
 ))
 (let ((?x11964 (sc_t 3)))
 (let ((?x4319 (sc_s 5)))
 (let (($x3659 (= ?x4319 ?x11964)))
 (let ((?x10773 (used_gas_t x_0 x_1 x_2 w_4 w_5 0)))
 (let ((?x527 (used_gas_s x_0 x_1 x_2 w_4 w_5 0)))
 (let (($x9211 (= ?x527 ?x10773)))
 (let (($x9502 (forall ((w (_ BitVec 256)) )(let ((?x5378 (storage_t x_0 x_1 x_2 w_4 w_5 0 w)))
 (let ((?x6121 (storage_s x_0 x_1 x_2 w_4 w_5 0 w)))
 (= ?x6121 ?x5378))))
 ))
 (let (($x56 (exc_halt_t 0)))
 (let (($x57 (exc_halt_s 0)))
 (let (($x58 (= $x57 $x56)))
 (let (($x8001 (forall ((n (_ BitVec 6)) )(let ((?x8003 (stack_t x_0 x_1 x_2 w_4 w_5 0 n)))
 (let ((?x9896 (stack_s x_0 x_1 x_2 w_4 w_5 0 n)))
 (let (($x8354 (= ?x9896 ?x8003)))
 (let ((?x63 (sc_t 0)))
 (let (($x848 (bvsle ?x63 n)))
 (or $x848 $x8354)))))))
 ))
 (let ((?x63 (sc_t 0)))
 (let ((?x72 (sc_s 0)))
 (let (($x73 (= ?x72 ?x63)))
 (let (($x8412 (exc_halt_t 2)))
 (let (($x2655 (not (= ((_ extract 6 6) (bvadd (_ bv1 7) (concat (_ bv0 1) (sc_t 2)))) (_ bv0 1)))))
 (let (($x2826 (forall ((w (_ BitVec 256)) )(let ((?x4130 (storage_t x_0 x_1 x_2 w_4 w_5 2 w)))
 (let ((?x9440 (storage_t x_0 x_1 x_2 w_4 w_5 3 w)))
 (= ?x9440 ?x4130))))
 ))
 (let (($x3850 (forall ((n (_ BitVec 6)) )(let ((?x4872 (stack_t x_0 x_1 x_2 w_4 w_5 2 n)))
 (let ((?x3595 (stack_t x_0 x_1 x_2 w_4 w_5 3 n)))
 (or (= ?x3595 ?x4872) (bvsle (bvadd (_ bv59 6) (sc_t 2)) n)))))
 ))
 (let (($x11439 (= ?x11964 (bvadd (_ bv1 6) (sc_t 2)))))
 (let (($x253 (= (used_gas_t x_0 x_1 x_2 w_4 w_5 3) (+ 3 (used_gas_t x_0 x_1 x_2 w_4 w_5 2)))))
 (let (($x252 (= (stack_t x_0 x_1 x_2 w_4 w_5 3 (bvadd (_ bv63 6) (sc_t 2))) (stack_t x_0 x_1 x_2 w_4 w_5 2 (bvadd (_ bv63 6) (sc_t 2))))))
 (let (($x1398 (= (stack_t x_0 x_1 x_2 w_4 w_5 3 (bvadd (_ bv62 6) (sc_t 2))) (stack_t x_0 x_1 x_2 w_4 w_5 2 (bvadd (_ bv62 6) (sc_t 2))))))
 (let (($x3112 (= (stack_t x_0 x_1 x_2 w_4 w_5 3 (bvadd (_ bv61 6) (sc_t 2))) (stack_t x_0 x_1 x_2 w_4 w_5 2 (bvadd (_ bv61 6) (sc_t 2))))))
 (let (($x313 (= (stack_t x_0 x_1 x_2 w_4 w_5 3 (bvadd (_ bv60 6) (sc_t 2))) (stack_t x_0 x_1 x_2 w_4 w_5 2 (bvadd (_ bv60 6) (sc_t 2))))))
 (let ((?x11248 (sc_t 2)))
 (let ((?x200 (bvadd (_ bv59 6) ?x11248)))
 (let ((?x405 (stack_t x_0 x_1 x_2 w_4 w_5 2 ?x200)))
 (let (($x11716 (= (stack_t x_0 x_1 x_2 w_4 w_5 3 (bvadd (_ bv63 6) ?x11964)) ?x405)))
 (let (($x2931 (not (= ((_ extract 6 6) (bvadd (_ bv1 7) (concat (_ bv0 1) (sc_t 1)))) (_ bv0 1)))))
 (let (($x4852 (exc_halt_t 1)))
 (let (($x1672 (forall ((w (_ BitVec 256)) )(let ((?x6198 (storage_t x_0 x_1 x_2 w_4 w_5 1 w)))
 (let ((?x4130 (storage_t x_0 x_1 x_2 w_4 w_5 2 w)))
 (= ?x4130 ?x6198))))
 ))
 (let (($x10184 (forall ((n (_ BitVec 6)) )(let ((?x9666 (sc_t 1)))
 (let (($x12002 (bvsle ?x9666 n)))
 (let ((?x1012 (stack_t x_0 x_1 x_2 w_4 w_5 1 n)))
 (let ((?x4872 (stack_t x_0 x_1 x_2 w_4 w_5 2 n)))
 (or (= ?x4872 ?x1012) $x12002))))))
 ))
 (let (($x3033 (= ?x11248 (bvadd (_ bv1 6) (sc_t 1)))))
 (let ((?x7987 (used_gas_t x_0 x_1 x_2 w_4 w_5 2)))
 (let (($x10044 (= $x4852 (or $x56 (not (= ((_ extract 6 6) (bvadd (_ bv1 7) (concat (_ bv0 1) ?x63))) (_ bv0 1)))))))
 (let (($x4303 (forall ((w (_ BitVec 256)) )(let ((?x5378 (storage_t x_0 x_1 x_2 w_4 w_5 0 w)))
 (let ((?x6198 (storage_t x_0 x_1 x_2 w_4 w_5 1 w)))
 (= ?x6198 ?x5378))))
 ))
 (let (($x5236 (forall ((n (_ BitVec 6)) )(let ((?x8003 (stack_t x_0 x_1 x_2 w_4 w_5 0 n)))
 (let ((?x1012 (stack_t x_0 x_1 x_2 w_4 w_5 1 n)))
 (let ((?x63 (sc_t 0)))
 (let (($x848 (bvsle ?x63 n)))
 (or $x848 (= ?x1012 ?x8003)))))))
 ))
 (let ((?x9666 (sc_t 1)))
 (let (($x7751 (= ?x9666 (bvadd (_ bv1 6) ?x63))))
 (let (($x11999 (= $x1862 (or (exc_halt_s 4) (not (bvsle (_ bv0 6) (bvadd (_ bv61 6) (sc_s 4))))))))
 (let (($x4207 (forall ((w (_ BitVec 256)) )(let ((?x6506 (storage_s x_0 x_1 x_2 w_4 w_5 4 w)))
 (let ((?x2814 (storage_s x_0 x_1 x_2 w_4 w_5 5 w)))
 (= ?x2814 ?x6506))))
 ))
 (let (($x5439 (forall ((n (_ BitVec 6)) )(let ((?x11887 (stack_s x_0 x_1 x_2 w_4 w_5 4 n)))
 (let ((?x7990 (stack_s x_0 x_1 x_2 w_4 w_5 5 n)))
 (let ((?x9433 (sc_s 4)))
 (let ((?x338 (bvadd (_ bv61 6) ?x9433)))
 (let (($x5454 (bvsle ?x338 n)))
 (or $x5454 (= ?x7990 ?x11887))))))))
 ))
 (let ((?x9433 (sc_s 4)))
 (let (($x3939 (= ?x4319 ?x9433)))
 (let (($x6273 (= (used_gas_s x_0 x_1 x_2 w_4 w_5 5) (+ 3 (used_gas_s x_0 x_1 x_2 w_4 w_5 4)))))
 (let ((?x1027 (bvadd (_ bv62 6) ?x9433)))
 (let ((?x6930 (stack_s x_0 x_1 x_2 w_4 w_5 4 ?x1027)))
 (let (($x7954 (= (stack_s x_0 x_1 x_2 w_4 w_5 5 (bvadd (_ bv62 6) ?x4319)) ?x6930)))
 (let ((?x8927 (bvadd (_ bv63 6) ?x9433)))
 (let ((?x2106 (stack_s x_0 x_1 x_2 w_4 w_5 4 ?x8927)))
 (let (($x2124 (= (stack_s x_0 x_1 x_2 w_4 w_5 5 (bvadd (_ bv61 6) ?x4319)) ?x2106)))
 (let (($x1228 (= (stack_s x_0 x_1 x_2 w_4 w_5 5 (bvadd (_ bv63 6) ?x4319)) (stack_s x_0 x_1 x_2 w_4 w_5 4 (bvadd (_ bv61 6) ?x9433)))))
 (let (($x9175 (exc_halt_s 4)))
 (let (($x4038 (= $x9175 (or (exc_halt_s 3) (not (bvsle (_ bv0 6) (bvadd (_ bv62 6) (sc_s 3))))))))
 (let (($x8372 (forall ((w (_ BitVec 256)) )(let ((?x6059 (storage_s x_0 x_1 x_2 w_4 w_5 3 w)))
 (let ((?x6506 (storage_s x_0 x_1 x_2 w_4 w_5 4 w)))
 (= ?x6506 ?x6059))))
 ))
 (let (($x4696 (forall ((n (_ BitVec 6)) )(let ((?x3666 (stack_s x_0 x_1 x_2 w_4 w_5 3 n)))
 (let ((?x11887 (stack_s x_0 x_1 x_2 w_4 w_5 4 n)))
 (or (bvsle (bvadd (_ bv62 6) (sc_s 3)) n) (= ?x11887 ?x3666)))))
 ))
 (let ((?x3851 (sc_s 3)))
 (let (($x1714 (= ?x9433 ?x3851)))
 (let ((?x9340 (used_gas_s x_0 x_1 x_2 w_4 w_5 4)))
 (let (($x4974 (= ?x6930 (stack_s x_0 x_1 x_2 w_4 w_5 3 (bvadd (_ bv63 6) ?x3851)))))
 (let (($x11132 (= ?x2106 (stack_s x_0 x_1 x_2 w_4 w_5 3 (bvadd (_ bv62 6) ?x3851)))))
 (let (($x10052 (exc_halt_s 2)))
 (let (($x5955 (or $x10052 (not (= ((_ extract 6 6) (bvadd (_ bv1 7) (concat (_ bv0 1) (sc_s 2)))) (_ bv0 1))))))
 (let (($x8103 (exc_halt_s 3)))
 (let (($x4734 (= $x8103 $x5955)))
 (let (($x11798 (forall ((w (_ BitVec 256)) )(let ((?x3749 (storage_s x_0 x_1 x_2 w_4 w_5 2 w)))
 (let ((?x6059 (storage_s x_0 x_1 x_2 w_4 w_5 3 w)))
 (= ?x6059 ?x3749))))
 ))
 (let (($x4067 (forall ((n (_ BitVec 6)) )(let ((?x10621 (stack_s x_0 x_1 x_2 w_4 w_5 2 n)))
 (let ((?x3666 (stack_s x_0 x_1 x_2 w_4 w_5 3 n)))
 (let ((?x2272 (sc_s 2)))
 (let (($x7461 (bvsle ?x2272 n)))
 (or $x7461 (= ?x3666 ?x10621)))))))
 ))
 (let (($x11788 (= ?x3851 (bvadd (_ bv1 6) (sc_s 2)))))
 (let ((?x6937 (used_gas_s x_0 x_1 x_2 w_4 w_5 3)))
 (let (($x8780 (exc_halt_s 1)))
 (let (($x9031 (or $x8780 (not (= ((_ extract 6 6) (bvadd (_ bv1 7) (concat (_ bv0 1) (sc_s 1)))) (_ bv0 1))))))
 (let (($x7890 (= $x10052 $x9031)))
 (let (($x10919 (forall ((w (_ BitVec 256)) )(let ((?x8932 (storage_s x_0 x_1 x_2 w_4 w_5 1 w)))
 (let ((?x3749 (storage_s x_0 x_1 x_2 w_4 w_5 2 w)))
 (= ?x3749 ?x8932))))
 ))
 (let (($x4193 (forall ((n (_ BitVec 6)) )(let ((?x154 (sc_s 1)))
 (let (($x7468 (bvsle ?x154 n)))
 (let ((?x5269 (stack_s x_0 x_1 x_2 w_4 w_5 1 n)))
 (let ((?x10621 (stack_s x_0 x_1 x_2 w_4 w_5 2 n)))
 (or (= ?x10621 ?x5269) $x7468))))))
 ))
 (let ((?x2272 (sc_s 2)))
 (let (($x2632 (= ?x2272 (bvadd (_ bv1 6) (sc_s 1)))))
 (let ((?x3592 (used_gas_s x_0 x_1 x_2 w_4 w_5 2)))
 (let (($x7122 (not (= ((_ extract 6 6) (bvadd (_ bv1 7) (concat (_ bv0 1) ?x72))) (_ bv0 1)))))
 (let (($x1063 (forall ((w (_ BitVec 256)) )(let ((?x6121 (storage_s x_0 x_1 x_2 w_4 w_5 0 w)))
 (let ((?x8932 (storage_s x_0 x_1 x_2 w_4 w_5 1 w)))
 (= ?x8932 ?x6121))))
 ))
 (let (($x919 (forall ((n (_ BitVec 6)) )(let ((?x9896 (stack_s x_0 x_1 x_2 w_4 w_5 0 n)))
 (let ((?x5269 (stack_s x_0 x_1 x_2 w_4 w_5 1 n)))
 (or (bvsle (bvadd (_ bv61 6) (sc_s 0)) n) (= ?x5269 ?x9896)))))
 ))
 (let ((?x154 (sc_s 1)))
 (let (($x2838 (= ?x154 (bvadd (_ bv1 6) ?x72))))
 (let (($x8478 (= (stack_s x_0 x_1 x_2 w_4 w_5 1 (bvadd (_ bv63 6) ?x72)) (stack_s x_0 x_1 x_2 w_4 w_5 0 (bvadd (_ bv63 6) ?x72)))))
 (let (($x11233 (= (stack_s x_0 x_1 x_2 w_4 w_5 1 (bvadd (_ bv62 6) ?x72)) (stack_s x_0 x_1 x_2 w_4 w_5 0 (bvadd (_ bv62 6) ?x72)))))
 (let ((?x9252 (bvadd (_ bv61 6) ?x72)))
 (let ((?x6861 (stack_s x_0 x_1 x_2 w_4 w_5 0 ?x9252)))
 (let (($x9956 (= (stack_s x_0 x_1 x_2 w_4 w_5 1 (bvadd (_ bv63 6) ?x154)) ?x6861)))
 (let (($x2229 (forall ((w (_ BitVec 256)) )(let ((?x6121 (storage_s x_0 x_1 x_2 w_4 w_5 0 w)))
 (= ?x6121 (_ bv0 256))))
 ))
 (let (($x1297 (= ?x527 0)))
 (let (($x10373 (not $x57)))
 (let (($x121 (= (stack_s x_0 x_1 x_2 w_4 w_5 0 (_ bv2 6)) x_2)))
 (let (($x7232 (= (stack_s x_0 x_1 x_2 w_4 w_5 0 (_ bv1 6)) x_1)))
 (let (($x3746 (= (stack_s x_0 x_1 x_2 w_4 w_5 0 (_ bv0 6)) x_0)))
 (let (($x6307 (= ?x72 (_ bv3 6))))
 (and $x6307 $x3746 $x7232 $x121 $x10373 $x1297 $x2229 $x9956 (= (stack_s x_0 x_1 x_2 w_4 w_5 1 ?x9252) ?x6861) $x11233 $x8478 (= (used_gas_s x_0 x_1 x_2 w_4 w_5 1) (+ 3 ?x527)) $x2838 $x919 $x1063 (= $x8780 (or $x57 $x7122 (not (bvsle (_ bv0 6) ?x9252)))) (= (stack_s x_0 x_1 x_2 w_4 w_5 2 ?x154) w_4) (= ?x3592 (+ 3 (used_gas_s x_0 x_1 x_2 w_4 w_5 1))) $x2632 $x4193 $x10919 $x7890 (= (stack_s x_0 x_1 x_2 w_4 w_5 3 ?x2272) w_5) (= ?x6937 (+ 3 ?x3592)) $x11788 $x4067 $x11798 $x4734 $x11132 $x4974 (= ?x9340 (+ 3 ?x6937)) $x1714 $x4696 $x8372 $x4038 $x1228 $x2124 $x7954 $x6273 $x3939 $x5439 $x4207 $x11999 (= (stack_t x_0 x_1 x_2 w_4 w_5 1 ?x63) w_4) (= (used_gas_t x_0 x_1 x_2 w_4 w_5 1) (+ 3 ?x10773)) $x7751 $x5236 $x4303 $x10044 (= (stack_t x_0 x_1 x_2 w_4 w_5 2 ?x9666) w_5) (= ?x7987 (+ 3 (used_gas_t x_0 x_1 x_2 w_4 w_5 1))) $x3033 $x10184 $x1672 (= $x8412 (or $x4852 $x2931)) $x11716 (= (stack_t x_0 x_1 x_2 w_4 w_5 3 ?x200) ?x405) $x313 $x3112 $x1398 $x252 $x253 $x11439 $x3850 $x2826 (= $x4112 (or $x2655 (not (bvsle (_ bv0 6) ?x200)) $x8412)) $x73 $x8001 $x58 $x9502 $x9211 (not (and $x3659 $x1677 $x34 $x3766)))))))))))))))))))))))))))))))))))))))))))))))))))))))))))))))))))))))))))))))))))))))))))))))))))))))
 )
(check-sat)
(get-proof)
